(declare-fun temp10721_1 () (_ BitVec 64))
(declare-fun temp10721_2 () (_ BitVec 64))
(declare-fun temp10721_3 () (_ BitVec 64))
(declare-fun ARGNAME_w_hh_NAMEEND_DIMSIZE
             ()
             (Array (_ BitVec 64) (_ BitVec 64)))
(declare-fun temp10721_4 () (_ BitVec 64))
(declare-fun temp10721_5 () (_ BitVec 64))
(declare-fun temp10721_6 () (_ BitVec 64))
(declare-fun temp10721_7 () (_ BitVec 64))
(declare-fun temp10721_8 () (_ BitVec 64))
(declare-fun temp10721_9 () (_ BitVec 64))
(declare-fun temp10721_10 () (_ BitVec 64))
(declare-fun temp10721_11 () (_ BitVec 64))
(declare-fun temp10721_12 () (_ BitVec 64))
(declare-fun temp10721_13 () (_ BitVec 64))
(declare-fun temp10721_14 () (_ BitVec 64))
(declare-fun temp10721_15 () (_ BitVec 64))
(declare-fun temp10721_16 () (_ BitVec 64))
(declare-fun temp10721_17 () (_ BitVec 64))
(declare-fun temp10721_18 () (_ BitVec 64))
(declare-fun temp10721_19 () (_ BitVec 64))
(declare-fun temp10721_20 () (_ BitVec 64))
(declare-fun temp10721_21 () (_ BitVec 64))
(declare-fun temp10721_22 () (_ BitVec 64))
(declare-fun temp10721_23 () (_ BitVec 64))
(declare-fun temp10721_24 () (_ BitVec 64))
(declare-fun ARGNAME_input_NAMEEND_DIMSIZE
             ()
             (Array (_ BitVec 64) (_ BitVec 64)))
(declare-fun temp10721_25 () (_ BitVec 64))
(declare-fun temp10721_26 () (_ BitVec 64))
(declare-fun temp10721_27 () (_ BitVec 64))
(declare-fun temp10721_28 () (_ BitVec 64))
(declare-fun temp10721_29 () (_ BitVec 64))
(declare-fun temp10721_30 () (_ BitVec 64))
(declare-fun temp10721_31 () (_ BitVec 64))
(declare-fun temp10721_32 () (_ BitVec 64))
(declare-fun temp10721_33 () (_ BitVec 64))
(declare-fun temp10721_34 () (_ BitVec 64))
(declare-fun temp10721_35 () (_ BitVec 64))
(declare-fun temp10721_36 () (_ BitVec 64))
(declare-fun temp10721_37 () (_ BitVec 64))
(declare-fun temp10721_38 () (_ BitVec 64))
(declare-fun temp10721_39 () (_ BitVec 64))
(declare-fun temp10721_40 () (_ BitVec 64))
(declare-fun temp10721_41 () (_ BitVec 64))
(declare-fun temp10721_42 () (_ BitVec 64))
(declare-fun temp10721_43 () (_ BitVec 64))
(declare-fun temp10721_44 () (_ BitVec 64))
(declare-fun var404256 () (_ BitVec 64))
(declare-fun k!0 () (_ BitVec 64))
(declare-fun k!1 () (_ BitVec 64))
(declare-fun k!2 () Bool)
(declare-fun ARGNAME_w_hh_NAMEEND_DIM () (_ BitVec 64))
(declare-fun ARGNAME_input_NAMEEND_DIM () (_ BitVec 64))
(declare-fun temp10721_45 () (_ BitVec 64))
(declare-fun temp10721_46 () (_ BitVec 64))
(declare-fun ARGNAME_b_ih_NAMEEND_DIMSIZE
             ()
             (Array (_ BitVec 64) (_ BitVec 64)))
(declare-fun temp10721_47 () (_ BitVec 64))
(declare-fun temp10721_48 () (_ BitVec 64))
(declare-fun temp10721_49 () (_ BitVec 64))
(declare-fun temp10721_50 () (_ BitVec 64))
(declare-fun temp10721_51 () (_ BitVec 64))
(declare-fun temp10721_52 () (_ BitVec 64))
(declare-fun temp10721_53 () (_ BitVec 64))
(declare-fun temp10721_54 () (_ BitVec 64))
(declare-fun temp10721_55 () (_ BitVec 64))
(declare-fun temp10721_56 () (_ BitVec 64))
(declare-fun temp10721_57 () (_ BitVec 64))
(declare-fun temp10721_58 () (_ BitVec 64))
(declare-fun temp10721_59 () (_ BitVec 64))
(declare-fun temp10721_60 () (_ BitVec 64))
(declare-fun temp10721_61 () (_ BitVec 64))
(declare-fun temp10721_62 () (_ BitVec 64))
(declare-fun temp10721_63 () (_ BitVec 64))
(declare-fun temp10721_64 () (_ BitVec 64))
(declare-fun temp10721_65 () (_ BitVec 64))
(declare-fun ARGNAME_b_ih_NAMEEND_DIM () (_ BitVec 64))
(declare-fun temp10721_66 () (_ BitVec 64))
(declare-fun var65706 () (_ BitVec 64))
(declare-fun temp10721_67 () (_ BitVec 64))
(declare-fun temp10721_68 () (_ BitVec 64))
(declare-fun temp10721_69 () (_ BitVec 64))
(declare-fun temp10721_70 () (_ BitVec 64))
(declare-fun temp10721_71 () (_ BitVec 64))
(declare-fun temp10721_72 () (_ BitVec 64))
(declare-fun var68976 () (_ BitVec 64))
(declare-fun temp10721_73 () (_ BitVec 64))
(declare-fun temp10721_74 () (_ BitVec 64))
(declare-fun temp10721_75 () (_ BitVec 64))
(declare-fun temp10721_76 () (_ BitVec 64))
(declare-fun temp10721_77 () (_ BitVec 64))
(declare-fun temp10721_78 () (_ BitVec 64))
(declare-fun temp10721_79 () (_ BitVec 64))
(declare-fun temp10721_80 () (_ BitVec 64))
(declare-fun var2041840 () (_ BitVec 64))
(declare-fun temp10721_81 () (_ BitVec 64))
(declare-fun temp10721_82 () (_ BitVec 64))
(declare-fun var2887497 () (_ BitVec 64))
(declare-fun temp10721_83 () (_ BitVec 64))
(declare-fun var3215425 () (_ BitVec 64))
(declare-fun temp10721_84 () (_ BitVec 64))
(declare-fun var3215426 () (_ BitVec 64))
(declare-fun temp10721_85 () (_ BitVec 64))
(declare-fun var3280971 () (_ BitVec 64))
(declare-fun temp10721_86 () (_ BitVec 64))
(declare-fun var3412043 () (_ BitVec 64))
(declare-fun temp10721_87 () (_ BitVec 64))
(declare-fun var3543115 () (_ BitVec 64))
(declare-fun temp10721_88 () (_ BitVec 64))
(declare-fun var3674187 () (_ BitVec 64))
(declare-fun temp10721_89 () (_ BitVec 64))
(declare-fun var3805001 () (_ BitVec 64))
(assert (= temp10721_1 #x0000000000000000))
(assert (= temp10721_2 temp10721_1))
(assert (= temp10721_3 (select ARGNAME_w_hh_NAMEEND_DIMSIZE temp10721_2)))
(assert (= temp10721_4 #x0000000000000001))
(assert (= temp10721_5 temp10721_4))
(assert (= temp10721_6 (select ARGNAME_w_hh_NAMEEND_DIMSIZE temp10721_5)))
(assert (= temp10721_7 #x0000000000000002))
(assert (= temp10721_8 temp10721_7))
(assert (= temp10721_9 (select ARGNAME_w_hh_NAMEEND_DIMSIZE temp10721_8)))
(assert (= temp10721_10 #x0000000000000003))
(assert (= temp10721_11 temp10721_10))
(assert (= temp10721_12 (select ARGNAME_w_hh_NAMEEND_DIMSIZE temp10721_11)))
(assert (= temp10721_13 #x0000000000000004))
(assert (= temp10721_14 temp10721_13))
(assert (= temp10721_15 (select ARGNAME_w_hh_NAMEEND_DIMSIZE temp10721_14)))
(assert (= temp10721_16 #x0000000000000005))
(assert (= temp10721_17 temp10721_16))
(assert (= temp10721_18 (select ARGNAME_w_hh_NAMEEND_DIMSIZE temp10721_17)))
(assert (= temp10721_19 #x0000000000000001))
(assert (= temp10721_20 temp10721_19))
(assert (= temp10721_21 (select ARGNAME_w_hh_NAMEEND_DIMSIZE temp10721_20)))
(assert (bvsgt ARGNAME_w_hh_NAMEEND_DIM temp10721_19))
(assert (bvsge temp10721_19 (bvneg ARGNAME_w_hh_NAMEEND_DIM)))
(assert (= temp10721_22 #x0000000000000000))
(assert (= temp10721_23 temp10721_22))
(assert (= temp10721_24 (select ARGNAME_input_NAMEEND_DIMSIZE temp10721_23)))
(assert (= temp10721_25 #x0000000000000001))
(assert (= temp10721_26 temp10721_25))
(assert (= temp10721_27 (select ARGNAME_input_NAMEEND_DIMSIZE temp10721_26)))
(assert (= temp10721_28 #x0000000000000002))
(assert (= temp10721_29 temp10721_28))
(assert (= temp10721_30 (select ARGNAME_input_NAMEEND_DIMSIZE temp10721_29)))
(assert (= temp10721_31 #x0000000000000003))
(assert (= temp10721_32 temp10721_31))
(assert (= temp10721_33 (select ARGNAME_input_NAMEEND_DIMSIZE temp10721_32)))
(assert (= temp10721_34 #x0000000000000004))
(assert (= temp10721_35 temp10721_34))
(assert (= temp10721_36 (select ARGNAME_input_NAMEEND_DIMSIZE temp10721_35)))
(assert (= temp10721_37 #x0000000000000005))
(assert (= temp10721_38 temp10721_37))
(assert (= temp10721_39 (select ARGNAME_input_NAMEEND_DIMSIZE temp10721_38)))
(assert (= temp10721_40 #x0000000000000001))
(assert (= temp10721_41 temp10721_40))
(assert (= temp10721_42 (select ARGNAME_input_NAMEEND_DIMSIZE temp10721_41)))
(assert (bvsgt ARGNAME_input_NAMEEND_DIM temp10721_40))
(assert (bvsge temp10721_40 (bvneg ARGNAME_input_NAMEEND_DIM)))
(assert (= temp10721_43 temp10721_21))
(assert (= var404256
   (ite (= temp10721_42 temp10721_43) #x0000000000000001 #x0000000000000000)))
(assert (= temp10721_44 #x0000000000000001))
(assert (= var404256 temp10721_44))
(assert (= temp10721_45 #x0000000000000000))
(assert (= temp10721_46 temp10721_45))
(assert (= temp10721_47 (select ARGNAME_b_ih_NAMEEND_DIMSIZE temp10721_46)))
(assert (= temp10721_48 #x0000000000000001))
(assert (= temp10721_49 temp10721_48))
(assert (= temp10721_50 (select ARGNAME_b_ih_NAMEEND_DIMSIZE temp10721_49)))
(assert (= temp10721_51 #x0000000000000002))
(assert (= temp10721_52 temp10721_51))
(assert (= temp10721_53 (select ARGNAME_b_ih_NAMEEND_DIMSIZE temp10721_52)))
(assert (= temp10721_54 #x0000000000000003))
(assert (= temp10721_55 temp10721_54))
(assert (= temp10721_56 (select ARGNAME_b_ih_NAMEEND_DIMSIZE temp10721_55)))
(assert (= temp10721_57 #x0000000000000004))
(assert (= temp10721_58 temp10721_57))
(assert (= temp10721_59 (select ARGNAME_b_ih_NAMEEND_DIMSIZE temp10721_58)))
(assert (= temp10721_60 #x0000000000000005))
(assert (= temp10721_61 temp10721_60))
(assert (= temp10721_62 (select ARGNAME_b_ih_NAMEEND_DIMSIZE temp10721_61)))
(assert (= temp10721_63 #x0000000000000001))
(assert (= temp10721_64 temp10721_63))
(assert (= temp10721_65 (select ARGNAME_b_ih_NAMEEND_DIMSIZE temp10721_64)))
(assert (bvsgt ARGNAME_b_ih_NAMEEND_DIM temp10721_63))
(assert (bvsge temp10721_63 (bvneg ARGNAME_b_ih_NAMEEND_DIM)))
(assert (= temp10721_66 #x0000000000000000))
(assert (= var65706 temp10721_66))
(assert (= temp10721_67 temp10721_65))
(assert (= temp10721_68 #x0000000000000000))
(assert (= temp10721_69 temp10721_68))
(assert (= temp10721_70 (select ARGNAME_input_NAMEEND_DIMSIZE temp10721_69)))
(assert (bvsgt ARGNAME_input_NAMEEND_DIM temp10721_68))
(assert (bvsge temp10721_68 (bvneg ARGNAME_input_NAMEEND_DIM)))
(assert (= temp10721_71 temp10721_67))
(assert (= temp10721_72 #x0000000000000001))
(assert (= var68976 temp10721_72))
(assert (= temp10721_73 temp10721_65))
(assert (= temp10721_74 #x0000000000000000))
(assert (= temp10721_75 temp10721_74))
(assert (= temp10721_76 (select ARGNAME_input_NAMEEND_DIMSIZE temp10721_75)))
(assert (bvsgt ARGNAME_input_NAMEEND_DIM temp10721_74))
(assert (bvsge temp10721_74 (bvneg ARGNAME_input_NAMEEND_DIM)))
(assert (= temp10721_77 temp10721_73))
(assert (= temp10721_78 #x0000000000000000))
(assert (= var65706 temp10721_78))
(assert (= temp10721_79 #x0000000000000001))
(assert (= var68976 temp10721_79))
(assert (= temp10721_80 #x0000000000000000))
(assert (= var2041840 temp10721_80))
(assert (= temp10721_81 #x0000000000000000))
(assert (= var2041840 temp10721_81))
(assert (= temp10721_82 #x0000000000000001))
(assert (= var2887497 temp10721_82))
(assert (= temp10721_83 #x0000000000000004))
(assert (= var3215425 temp10721_83))
(assert (= temp10721_84 #x0000000000000001))
(assert (= var3215426 temp10721_84))
(assert (= temp10721_85 #x0000000000000000))
(assert (= var3280971 temp10721_85))
(assert (= temp10721_86 #x0000000000000001))
(assert (= var3412043 temp10721_86))
(assert (= temp10721_87 #x0000000000000002))
(assert (= var3543115 temp10721_87))
(assert (= temp10721_88 #x0000000000000003))
(assert (= var3674187 temp10721_88))
(assert (= temp10721_89 #x0000000000000001))
(assert (= var3805001 temp10721_89))
(model-add temp10721_1 () (_ BitVec 64) #x0000000000000000)
(model-add temp10721_2 () (_ BitVec 64) #x0000000000000000)
(model-add temp10721_3
           ()
           (_ BitVec 64)
           (select ARGNAME_w_hh_NAMEEND_DIMSIZE #x0000000000000000))
(model-add temp10721_4 () (_ BitVec 64) #x0000000000000001)
(model-add temp10721_5 () (_ BitVec 64) #x0000000000000001)
(model-add temp10721_6
           ()
           (_ BitVec 64)
           (select ARGNAME_w_hh_NAMEEND_DIMSIZE #x0000000000000001))
(model-add temp10721_7 () (_ BitVec 64) #x0000000000000002)
(model-add temp10721_8 () (_ BitVec 64) #x0000000000000002)
(model-add temp10721_9
           ()
           (_ BitVec 64)
           (select ARGNAME_w_hh_NAMEEND_DIMSIZE #x0000000000000002))
(model-add temp10721_10 () (_ BitVec 64) #x0000000000000003)
(model-add temp10721_11 () (_ BitVec 64) #x0000000000000003)
(model-add temp10721_12
           ()
           (_ BitVec 64)
           (select ARGNAME_w_hh_NAMEEND_DIMSIZE #x0000000000000003))
(model-add temp10721_13 () (_ BitVec 64) #x0000000000000004)
(model-add temp10721_14 () (_ BitVec 64) #x0000000000000004)
(model-add temp10721_15
           ()
           (_ BitVec 64)
           (select ARGNAME_w_hh_NAMEEND_DIMSIZE #x0000000000000004))
(model-add temp10721_16 () (_ BitVec 64) #x0000000000000005)
(model-add temp10721_17 () (_ BitVec 64) #x0000000000000005)
(model-add temp10721_18
           ()
           (_ BitVec 64)
           (select ARGNAME_w_hh_NAMEEND_DIMSIZE #x0000000000000005))
(model-add temp10721_19 () (_ BitVec 64) #x0000000000000001)
(model-add temp10721_20 () (_ BitVec 64) #x0000000000000001)
(model-add temp10721_21
           ()
           (_ BitVec 64)
           (select ARGNAME_w_hh_NAMEEND_DIMSIZE #x0000000000000001))
(model-add temp10721_22 () (_ BitVec 64) #x0000000000000000)
(model-add temp10721_23 () (_ BitVec 64) #x0000000000000000)
(model-add temp10721_24
           ()
           (_ BitVec 64)
           (select ARGNAME_input_NAMEEND_DIMSIZE #x0000000000000000))
(model-add temp10721_25 () (_ BitVec 64) #x0000000000000001)
(model-add temp10721_26 () (_ BitVec 64) #x0000000000000001)
(model-add temp10721_27
           ()
           (_ BitVec 64)
           (select ARGNAME_input_NAMEEND_DIMSIZE #x0000000000000001))
(model-add temp10721_28 () (_ BitVec 64) #x0000000000000002)
(model-add temp10721_29 () (_ BitVec 64) #x0000000000000002)
(model-add temp10721_30
           ()
           (_ BitVec 64)
           (select ARGNAME_input_NAMEEND_DIMSIZE #x0000000000000002))
(model-add temp10721_31 () (_ BitVec 64) #x0000000000000003)
(model-add temp10721_32 () (_ BitVec 64) #x0000000000000003)
(model-add temp10721_33
           ()
           (_ BitVec 64)
           (select ARGNAME_input_NAMEEND_DIMSIZE #x0000000000000003))
(model-add temp10721_34 () (_ BitVec 64) #x0000000000000004)
(model-add temp10721_35 () (_ BitVec 64) #x0000000000000004)
(model-add temp10721_36
           ()
           (_ BitVec 64)
           (select ARGNAME_input_NAMEEND_DIMSIZE #x0000000000000004))
(model-add temp10721_37 () (_ BitVec 64) #x0000000000000005)
(model-add temp10721_38 () (_ BitVec 64) #x0000000000000005)
(model-add temp10721_39
           ()
           (_ BitVec 64)
           (select ARGNAME_input_NAMEEND_DIMSIZE #x0000000000000005))
(model-add temp10721_40 () (_ BitVec 64) #x0000000000000001)
(model-add temp10721_41 () (_ BitVec 64) #x0000000000000001)
(model-add temp10721_42
           ()
           (_ BitVec 64)
           (select ARGNAME_input_NAMEEND_DIMSIZE #x0000000000000001))
(model-add temp10721_43
           ()
           (_ BitVec 64)
           (select ARGNAME_w_hh_NAMEEND_DIMSIZE #x0000000000000001))
(model-add temp10721_44 () (_ BitVec 64) #x0000000000000001)
(model-add var404256 () (_ BitVec 64) #x0000000000000001)
(model-del k!0)
(model-add ARGNAME_input_NAMEEND_DIMSIZE
           ()
           (Array (_ BitVec 64) (_ BitVec 64))
           ((as const (Array (_ BitVec 64) (_ BitVec 64))) k!0))
(model-del k!1)
(model-add ARGNAME_w_hh_NAMEEND_DIMSIZE
           ()
           (Array (_ BitVec 64) (_ BitVec 64))
           ((as const (Array (_ BitVec 64) (_ BitVec 64))) k!1))
(model-del k!2)
(model-add k!0 () (_ BitVec 64) (ite k!2 k!1 (bvnot k!1)))




